\ Model prob_81
\ LP format - for model browsing. Use MPS format to capture full model detail.
Minimize
  151000 open[0] + 192000 open[1] + 114000 open[2] + 171000 open[3]
   + 160000 open[4] + 5 x[0,0] + 2 x[0,1] + 3 x[0,2] + 3 x[0,3] + 3 x[0,4]
   + 5 x[0,5] + 4 x[1,0] + 3 x[1,1] + 5 x[1,2] + 2 x[1,3] + 4 x[1,4]
   + 2 x[1,5] + 4 x[2,0] + 5 x[2,1] + x[2,2] + 4 x[2,3] + 2 x[2,4]
   + 5 x[2,5] + 4 x[3,0] + x[3,1] + x[3,2] + 3 x[3,3] + 3 x[3,4] + 2 x[3,5]
   + 4 x[4,0] + 4 x[4,1] + 3 x[4,2] + 4 x[4,3] + 4 x[4,4] + x[4,5]
Subject To
 R0: x[0,0] + x[1,0] + x[2,0] + x[3,0] + x[4,0] >= 530
 R1: x[0,1] + x[1,1] + x[2,1] + x[3,1] + x[4,1] >= 884
 R2: x[0,2] + x[1,2] + x[2,2] + x[3,2] + x[4,2] >= 420
 R3: x[0,3] + x[1,3] + x[2,3] + x[3,3] + x[4,3] >= 566
 R4: x[0,4] + x[1,4] + x[2,4] + x[3,4] + x[4,4] >= 673
 R5: x[0,5] + x[1,5] + x[2,5] + x[3,5] + x[4,5] >= 787
 R6: - 1400 open[0] + x[0,0] + x[0,1] + x[0,2] + x[0,3] + x[0,4] + x[0,5]
   <= 0
 R7: - 1115 open[1] + x[1,0] + x[1,1] + x[1,2] + x[1,3] + x[1,4] + x[1,5]
   <= 0
 R8: - 813 open[2] + x[2,0] + x[2,1] + x[2,2] + x[2,3] + x[2,4] + x[2,5]
   <= 0
 R9: - 1041 open[3] + x[3,0] + x[3,1] + x[3,2] + x[3,3] + x[3,4] + x[3,5]
   <= 0
 R10: - 1576 open[4] + x[4,0] + x[4,1] + x[4,2] + x[4,3] + x[4,4] + x[4,5]
   <= 0
Bounds
Binaries
 open[0] open[1] open[2] open[3] open[4]
End
